(set-info :smt-lib-version 2.6)
(set-logic UFLIA)
(set-info :source |
Generated by: Geoff Sutcliffe
Generated on: 2026-03-11
Generator: TPTPWorld
Application: Benchmarking automated theorem provers
Time limit: 120.0

These benchmarks are translations from the TPTP Library (Thousands of
Problems for Theorem Provers), see http://www.cs.miami.edu/~tptp/

The TPTP is maintained by Geoff Sutcliffe, and he contributed this
selection of benchmarks to SMT-LIB.  They were exported from the
v9.2.1 realease of TPTP.
|)
(set-info :category "industrial")
(set-info :status "unknown")
; SZS status Success
(declare-sort $$unsorted 0)
(declare-fun tptp.z1 () Int)
(declare-fun tptp.z2 () Int)
(declare-fun tptp.z3 () Int)
(declare-fun tptp.a (Int) Int)
(declare-fun tptp.b (Int) Int)
(assert (not (=> (and (forall ((Z1 Int)) (let ((_let_1 (tptp.a Z1))) (and (<= 1 _let_1) (<= _let_1 12)))) (forall ((Z1 Int)) (let ((_let_1 (tptp.b Z1))) (and (<= 1 _let_1) (<= _let_1 5)))) true (not (= tptp.z1 tptp.z2)) (not (= tptp.z1 tptp.z3)) (not (= tptp.z2 tptp.z3)) (forall ((Z1 Int) (Z2 Int)) (not (and (not (= Z1 Z2)) (= (tptp.a Z1) 10) (= (tptp.a Z2) 10))))) (not (and (= (tptp.a tptp.z1) 9) (= (tptp.a tptp.z2) 10) (< (tptp.b tptp.z2) 3) (< tptp.z2 tptp.z1))))))
(check-sat)
